195
184
150
106
166
177
137
154
153
194
163
146
174
176
175
194
153
179
180
179
120
140
176
110
142
199
182
145
144
187
167
114
197
118
137
184
178
191
113
180
193
127
184
137
184
199
194
184
187
150
160
188
122
123
172
187
155
154
193
185
174
198
125
102
151
190
117
185
133
128
135
118
194
186
125
138
164
114
115
100
130
159
187
177
141
127
194
197
162
195
114
115
114
168
195
138
153
159
157
126
157
127
136
194
152
177
137
171
121
165
167
149
170
195
188
163
138
139
118
149
135
107
122
157
109
109
117
125
146
198
104
116
191
108
137
165
196
156
135
131
163
186
102
124
114
122
180
159
176
186
127
102
183
103
185
128
114
117
161
155
195
129
141
170
114
111
194
129
162
151
152
128
186
163
153
171
134
115
129
143
107
175
124
195
164
143
157
144
124
166
140
144
146
195
162
121
165
106
107
155
